
  12   12
  10   10   10   10   10   10   10   10   10   10   10   10

   0   0   0   0   0   0   0   0   0   0   0   0   0   4 2 3 10 11 
   9   0   0   1   1   1   0   0   0   0   0   0   5   2 8 4 
   1   0   1   0   6   0   0   0   0   1   0   0   0   3 8 7 5 
   1   0   3   0   0   0   0   1   0   0   0   1   0   3 9 7 6 
   9   0   0   0   0   0   0   0   0   0   1   0   0   1 6 
   7   1   0   9   7   6   0   0   0   0   0   0   0   1 12
   3   0   0   0   0   7   0   4   0   9   0   0   0   1 12
   5   5   0   0   9   4   0   7   0   0   9   0   0   1 12
   3   0   9   0   2   6   1   6   0   0   0   9   0   1 12
   2   0   7   0   0   6   9   0   0   0   0   5   0   1 12
   3   9   0   0   0   0   0   7   0   0   0   0   0   1 12
   0   0   0   0   0   0   0   0   0   0   0   0   0   0 
